NAME : mEgtspf.pid11095.gtsp.240592050.tour
COMMENT : Length = 240592050
COMMENT : Found by LKH [Keld Helsgaun] Sat Mar  8 22:22:50 2025
TYPE : TOUR
DIMENSION : 135
TOUR_SECTION
1
128
129
130
131
7
37
38
39
36
45
46
47
44
125
126
127
124
94
95
92
93
14
86
87
84
85
82
83
80
81
5
71
68
69
70
9
60
61
62
63
119
116
117
118
6
77
78
79
76
8
30
31
28
29
109
110
111
108
25
26
27
24
132
133
134
135
11
115
112
113
114
15
17
18
19
16
13
120
121
122
123
35
32
33
34
3
53
54
55
52
12
10
51
48
49
50
106
107
104
105
75
72
73
74
4
100
101
102
103
56
57
58
59
20
21
22
23
99
96
97
98
89
90
91
88
2
41
42
43
40
67
64
65
66
-1
EOF
